sat
(
  (define-fun StorageProv5 () Int
    141000)
  (define-fun C1_VM3 () Int
    0)
  (define-fun C2_VM2 () Int
    0)
  (define-fun ProcProv2 () Int
    899)
  (define-fun PriceProv5 () Int
    480)
  (define-fun VM4Type () Int
    10)
  (define-fun MemProv1 () Int
    3150)
  (define-fun C2_VM1 () Int
    0)
  (define-fun C5_VM5 () Int
    0)
  (define-fun C3_VM5 () Int
    1)
  (define-fun C4_VM1 () Int
    0)
  (define-fun MemProv3 () Int
    6750)
  (define-fun ProcProv3 () Int
    3600)
  (define-fun ProcProv5 () Int
    3600)
  (define-fun VM3Type () Int
    0)
  (define-fun StorageProv1 () Int
    69000)
  (define-fun MemProv4 () Int
    6750)
  (define-fun PriceProv3 () Int
    0)
  (define-fun C4_VM5 () Int
    1)
  (define-fun C3_VM1 () Int
    0)
  (define-fun MemProv2 () Int
    3151)
  (define-fun MemProv5 () Int
    6750)
  (define-fun StorageProv3 () Int
    141000)
  (define-fun C4_VM4 () Int
    0)
  (define-fun C1_VM2 () Int
    0)
  (define-fun PriceProv1 () Int
    240)
  (define-fun C4_VM3 () Int
    0)
  (define-fun StorageProv2 () Int
    69001)
  (define-fun C1_VM4 () Int
    1)
  (define-fun C1_VM5 () Int
    0)
  (define-fun C4_VM2 () Int
    0)
  (define-fun C2_VM5 () Int
    1)
  (define-fun PriceProv4 () Int
    480)
  (define-fun C3_VM4 () Int
    0)
  (define-fun PriceProv2 () Int
    0)
  (define-fun C5_VM3 () Int
    0)
  (define-fun C2_VM3 () Int
    0)
  (define-fun VM5Type () Int
    10)
  (define-fun VM2Type () Int
    0)
  (define-fun C3_VM3 () Int
    0)
  (define-fun C2_VM4 () Int
    0)
  (define-fun StorageProv4 () Int
    141000)
  (define-fun VM1Type () Int
    7)
  (define-fun C5_VM2 () Int
    0)
  (define-fun C3_VM2 () Int
    0)
  (define-fun C5_VM4 () Int
    0)
  (define-fun ProcProv4 () Int
    3600)
  (define-fun ProcProv1 () Int
    1800)
  (define-fun C5_VM1 () Int
    1)
  (define-fun C1_VM1 () Int
    0)
)
(objectives
 ( 5)
 ((+ 0 PriceProv1 PriceProv2 PriceProv3 PriceProv4 PriceProv5) 1200)
)
(:added-eqs                   35609
 :arith-eq-adapter            8855
 :arith-bound-propagations-lp 225
 :arith-conflicts             25
 :arith-diseq                 29554
 :arith-fixed-eqs             127
 :arith-lower                 41599
 :arith-make-feasible         7006
 :arith-max-columns           107
 :arith-max-rows              17
 :arith-upper                 25250
 :binary-propagations         173019
 :conflicts                   982
 :decisions                   20710
 :del-clause                  4630
 :final-checks                22
 :max-memory                  40.12
 :maxsat-cores                3
 :memory                      40.12
 :minimized-lits              5941
 :mk-bool-var                 18475
 :mk-clause                   5680
 :mk-clause-binary            2425
 :num-allocs                  5205082
 :num-checks                  30
 :pb-conflicts                578
 :pb-predicates               254
 :pb-propagations             243
 :pb-resolves                 578
 :propagations                225330
 :restarts                    6
 :rlimit-count                1731934
 :solve-eqs-elim-vars         2
 :solve-eqs-steps             16
 :time                        0.09
 :total-time                  0.09)
